200 151 164 166 165 6 5 4 75 3 2 8 9 12 150 163 133 130 71 69 68 78 70 91 92 131 132 90 89 93 94 95 86 124 87 88 121 120 104 103 101 96 97 99 98 123 122 118 119 114 116 111 129 117 127 115 113 112 109 110 126 125 1